myproject/instances/20nodes/rnd44_20.tsp
NAME : rnd44_20.tsp
TYPE : TSP
DIMENSION : 20
EDGE_WEIGHT_TYPE : EUC_2D
NODE_COORD_SECTION
1 487 20
2 164 393
3 773 228
4 125 684
5 697 782
6 568 267
7 79 175
8 939 735
9 976 431
10 67 383
11 572 575
12 933 359
13 920 828
14 900 308
15 780 681
16 143 494
17 77 441
18 274 715
19 895 221
20 499 382
