myproject/instances/20nodes/rnd44_20.opt.tour
NAME : rnd44_20.tsp.tsp.optbc.tour
TYPE : TOUR
DIMENSION : 20
TOUR_SECTION
1
12
14
13
8
5
15
16
3
20
6
11
10
19
4
17
2
7
9
18
-1